%%% static parameters %%%
timespan = 1;
Clients_N = [500];
Demand_W = [20];
Lt0 = [4];
Lt1 = [4];
SS_ = [0.85];
DS_D = [6];
K = [200];
MA = [500];
HC = [0.05];
%%% dynamic parameters %%%
lost_ratio_sales_ret_th = 0.0008955207708456804;
lost_ratio_sales_ret_w = 93;
lost_ratio_sales_dis_th = 0.0005050491116530628;
lost_ratio_sales_dis_w = 35;
lost_ratio_sales_fac_th = 0.0005392159839233507;
lost_ratio_sales_fac_w = 69;
stock_customer_MA_mean_relative_th = 0.27544487633052106;
stock_customer_MA_mean_relative_w = 5;
stock_distributor_MA_mean_relative_th = 0.6407353830234946;
stock_distributor_MA_mean_relative_w = 91;
stock_retailer_MA_mean_relative_th = 0.9294362599826419;
stock_retailer_MA_mean_relative_w = 20;
stock_factory_MA_mean_relative_th = 0.18144510643967304;
stock_factory_MA_mean_relative_w = 73;
